param W_CLASS:=
1 -0.00020723661971871923
2 0.018029585915528674
3 0
4 0
5 0
6 0
7 0
8 0
9 0
10 0
11 0
12 0
13 0.014601402554207915
14 0
15 0
16 0.11022922042924209
17 0
18 0
19 0 ;
param B_CLASS:= 3.715006954934956;